8 8 1 1 111111
15 2 8 2 2 3 2 8 5 5 7 2 3 3 7 3 3 8 3 2 4 3 5 3 2 3 5 7 7 1 2 1 6 6 4 3 8 3 1 1 3 1 2 1 1 7 7 2 8 5 2 6 3 8 1 5 6 7 3 2 1 6 5 3 2 8 5 7 7 2 2 5 3 5 2 1 1 7 1 3 8 6 1 3 6 1 
15 2 1 6 4 1 3 8 5 5 2 6 3 2 1 2 6 6 2 8 3 7 6 2 2 1 5 3 2 3 4 7 3 3 8 6 1 7 6 4 2 4 5 5 1 2 1 1 5 1 2 2 1 3 5 2 8 7 2 7 3 1 3 4 1 6 2 2 8 2 7 7 2 2 4 5 6 3 8 6 1 2 7 3 
15 2 3 1 7 7 2 5 1 7 5 2 8 5 7 7 2 3 7 7 5 2 8 1 3 3 2 4 5 5 2 2 8 5 1 5 2 1 1 4 5 2 3 4 6 2 2 8 1 5 4 3 2 1 3 2 5 2 2 6 5 7 3 2 4 3 7 7 2 8 6 3 5 2 8 4 6 7 
15 2 8 6 4 4 2 1 5 2 2 2 2 4 7 4 2 8 4 7 4 3 3 4 4 2 7 1 2 8 4 7 3 2 5 3 6 2 2 3 2 5 1 2 4 1 5 4 3 1 2 2 6 7 4 2 8 3 4 7 2 2 6 7 2 2 4 5 7 2 2 8 6 3 6 2 1 7 5 7 
15 2 8 3 4 6 3 2 3 3 1 5 7 2 1 2 2 7 2 1 2 6 4 2 5 2 6 7 2 3 6 4 7 2 3 6 4 7 2 3 2 4 1 2 8 3 1 6 2 2 4 3 2 2 1 7 4 6 2 1 1 5 5 3 8 3 6 1 7 1 2 8 3 1 7 2 2 6 5 6 
15 2 1 1 3 2 2 4 4 5 7 2 1 1 5 7 2 3 6 6 5 2 4 3 6 1 2 6 7 7 3 2 6 2 7 1 2 2 4 6 4 2 8 6 4 4 3 3 2 6 2 7 3 3 1 3 3 3 6 7 2 4 6 6 5 2 2 2 5 3 2 1 3 6 2 2 3 6 7 6 
15 3 8 5 1 7 5 5 2 5 5 6 6 2 2 6 5 6 3 1 3 3 4 4 1 3 1 4 6 3 7 3 2 4 6 6 5 2 8 2 6 2 2 1 1 4 1 2 3 1 4 5 2 1 3 2 4 2 8 1 2 3 2 8 3 2 4 2 8 2 6 5 2 5 5 6 6 2 8 4 7 7 
15 3 3 3 4 6 6 1 2 5 7 6 3 2 3 7 6 4 2 4 3 5 4 3 2 5 4 6 5 2 2 2 3 7 5 2 4 1 6 5 2 5 2 6 4 2 1 4 4 5 2 8 7 3 3 2 1 6 4 3 2 2 2 4 3 2 8 1 1 4 3 1 7 3 5 5 3 3 8 6 3 6 4 3 
0 2 3 5 
0 1 4 
0 1 3 
2 0 2 1 6 
1 1 2 6 7 
1 0 1 8 
2 4 3 1 9 
1 4 1 10 
1 5 1 11 
1 6 1 13 
1 7 2 12 14 
1 8 1 13 
1 10 0 
2 9 11 0 
1 10 0 
0 1 20 
0 2 17 18 
1 16 1 19 
1 16 1 21 
1 17 1 25 
1 15 2 23 25 
1 18 2 24 29 
0 1 27 
1 20 1 26 
1 21 1 26 
2 20 19 1 28 
2 24 23 0 
1 22 1 29 
1 25 0 
2 27 21 0 
0 1 31 
1 30 2 32 33 
1 31 2 34 39 
1 31 1 35 
1 32 2 37 38 
1 33 2 36 37 
1 35 1 44 
2 35 34 2 40 44 
1 34 1 42 
1 32 1 41 
1 37 1 43 
1 39 1 43 
1 38 0 
2 41 40 0 
2 37 36 0 
0 2 46 48 
1 45 2 47 55 
1 46 2 50 51 
1 45 1 49 
1 48 1 52 
1 47 1 53 
1 47 1 59 
1 49 1 59 
1 50 1 56 
0 1 55 
2 46 54 2 57 58 
1 53 0 
1 55 0 
1 55 0 
2 52 51 0 
0 2 62 64 
0 1 66 
1 60 1 63 
1 62 1 70 
1 60 1 68 
0 1 68 
1 61 2 67 71 
1 66 1 73 
2 65 64 2 69 74 
1 68 0 
1 63 1 72 
1 66 1 73 
1 70 0 
2 67 71 0 
1 68 0 
0 1 76 
1 75 1 79 
0 2 78 80 
1 77 1 83 
1 76 1 83 
1 77 2 81 82 
1 80 1 85 
1 80 1 87 
2 78 79 2 85 87 
0 1 86 
2 83 81 1 88 
1 84 1 87 
3 86 82 83 1 88 
2 85 87 1 89 
1 88 0 
0 3 91 94 98 
1 90 2 92 93 
1 91 1 96 
1 91 1 99 
1 90 2 97 101 
0 1 98 
1 92 1 103 
1 94 1 100 
2 90 95 1 99 
2 93 98 1 103 
1 97 0 
1 94 1 102 
1 101 1 104 
2 99 96 0 
1 102 0 
0 3 106 107 112 
1 105 2 108 111 
1 105 1 109 
1 106 2 110 115 
1 107 1 116 
1 108 1 117 
1 106 2 113 114 
1 105 1 114 
1 111 1 118 
2 111 112 1 119 
1 108 1 116 
2 109 115 1 119 
1 110 0 
1 113 0 
2 116 114 0 
